int NumberPatients = 12
int NumberOfRooms = 3
int NumberSurgeons = 17
int NumberOfDays = 6
Duration = [47,32,130,66,67,118,98,201,66,103,66,66];
Priority = [0,0,0,0,0,0,0,0,0,0,0,1];
Waiting = [107,107,148,107,148,24,198,107,80,24,148,57];
Surgeon = [4,3,6,1,1,2,6,17,5,6,10,3];
BlockAvailability = [[[0,0],[1,0],[0,0]],[[0,0],[1,0],[0,0]],[[0,1],[0,1],[1,0]],[[0,0],[0,0],[0,0]],[[0,0],[1,0],[1,0]],[[0,0],[0,0],[0,1]]];
SurgeonAvailability = [[[1,1],[1,1],[1,1],[1,1],[1,1],[1,1]],[[1,1],[1,1],[1,1],[1,1],[1,1],[1,1]],[[1,1],[1,1],[1,1],[1,1],[1,1],[1,1]],[[1,1],[1,1],[1,1],[1,1],[1,1],[1,1]],[[1,1],[1,1],[1,1],[1,1],[1,1],[1,1]],[[1,1],[1,1],[1,1],[1,1],[1,1],[1,1]],[[1,1],[1,1],[1,1],[1,1],[1,1],[1,1]],[[1,1],[1,1],[1,1],[1,1],[1,1],[1,1]],[[1,1],[1,1],[1,1],[1,1],[1,1],[1,1]],[[1,1],[1,1],[1,1],[1,1],[1,1],[1,1]],[[1,1],[1,1],[1,1],[1,1],[1,1],[1,1]],[[1,1],[1,1],[1,1],[1,1],[1,1],[1,1]],[[1,1],[1,1],[1,1],[1,1],[1,1],[1,1]],[[1,1],[1,1],[1,1],[1,1],[1,1],[1,1]],[[1,1],[1,1],[1,1],[1,1],[1,1],[1,1]],[[1,1],[1,1],[1,1],[1,1],[1,1],[1,1]],[[1,1],[1,1],[1,1],[1,1],[1,1],[1,1]]];
